peakDumbCharging = 33300; 
Machine = anon_enum(16); 
machineSpeed = [3700,3700,3700,3700,3700,3700,3700,3700,3700,3700,3700,3700,3700,3700,3700,3700]; 
machineLoad = [3700,3700,3700,3700,3700,3700,3700,3700,3700,3700,3700,3700,3700,3700,3700,3700]; 
Car = anon_enum(35); 
demandCar = [8040,3760,15360,20760,31400,7880,4200,1840,5040,3160,3280,12160,10920,4760,2360,7080,16400,12400,26680,9000,10120,5160,2360,1080,6560,31720,5800,12120,6640,6760,12000,6320,11600,30080,33240]; 
arrivalCar = [73,70,70,67,67,66,64,64,64,64,63,63,62,61,60,60,60,58,58,56,54,54,50,49,47,46,45,44,39,39,38,36,35,32,30]; 
departureCar = [77,73,77,76,77,71,68,66,67,67,66,69,69,64,63,65,69,65,78,60,58,56,52,50,51,69,62,49,44,44,44,39,43,48,52]; 
